c random tiny CNF generated by exact_maxdivsat.cpp
c seed 20273705
p cnf 13 43
13 10 4 0
1 8 7 0
-7 -8 9 0
-1 13 10 0
-6 -2 -3 0
-9 1 -13 0
3 -4 -6 0
-3 -8 -12 0
13 -6 3 0
5 -6 4 0
1 10 7 0
-1 9 -3 0
10 7 11 0
-6 5 10 0
-4 9 2 0
-7 -13 6 0
-1 10 3 0
5 4 6 0
7 -13 1 0
3 9 -2 0
-9 3 -7 0
10 2 -7 0
2 -10 7 0
-10 3 -11 0
6 9 11 0
12 3 6 0
-8 11 9 0
8 9 -6 0
12 -4 6 0
-6 -9 4 0
-1 6 -11 0
9 -8 -5 0
2 8 -11 0
1 5 6 0
10 8 5 0
13 -7 -9 0
7 -6 5 0
2 13 -6 0
10 6 -11 0
-3 4 -12 0
-10 7 2 0
-13 12 -8 0
-9 7 10 0
